Minimize
 obj: 0
Subject to

\true constraints
   82 X1
 -    81 X2
 -    82 X3
 -    73 X4
 -    68 X5
< 193.000000

\multiple objectives
 -  71 X1
 -    89 X2
 -    94 X3
 -    78 X4
 -    79 X5
< 1
 -  99 X1
 -    82 X2
 -    78 X3
 -    73 X4
 -    68 X5
< 2
 -  98 X1
 -    89 X2
 -    91 X3
 -    78 X4
 -    87 X5
< 3
 -  72 X1
 -    70 X2
 -    96 X3
 -    87 X4
 -    89 X5
< 4
 -  83 X1
 -    67 X2
 -    65 X3
 -    65 X4
 -    73 X5
< 5
 -  62 X1
 -    90 X2
 -    66 X3
 -    72 X4
 -    63 X5
< 6
 -  86 X1
 -    83 X2
 -    94 X3
 -    98 X4
 -    95 X5
< 7
 -  86 X1
 -    84 X2
 -    83 X3
 -    89 X4
 -    79 X5
< 8
 -  73 X1
 -    71 X2
 -    91 X3
 -    66 X4
 -    73 X5
< 9
   68 X1
 +    98 X2
 +    61 X3
 +    92 X4
 +    60 X5
< 10



BINARY
X1
X2
X3
X4
X5
END
